sat
(:cnf-encoding-aux-vars 2
 :eliminated-vars       23
 :max-memory            18.15
 :memory                18.05
 :nlsat-conflicts       4
 :nlsat-decisions       9
 :nlsat-propagations    26
 :nlsat-stages          7
 :num-allocs            34793
 :rlimit-count          6882
 :time                  0.00
 :total-time            0.02)
